(declare-fun a_ack!2362 () (_ BitVec 64))
(declare-fun b_ack!2360 () (_ BitVec 64))
(declare-fun epsabs_ack!2361 () (_ BitVec 64))
(declare-fun FPCHECK_FMUL_OVERFLOW ((_ FloatingPoint 11 53) (_ BitVec 64)) Bool)
(assert (let ((a!1 (fp.mul roundNearestTiesToEven
                   ((_ to_fp 11 53) #x3ff0000000000000)
                   (fp.mul roundNearestTiesToEven
                           ((_ to_fp 11 53) #x3fe0000000000000)
                           (fp.add roundNearestTiesToEven
                                   ((_ to_fp 11 53) b_ack!2360)
                                   ((_ to_fp 11 53) a_ack!2362))))))
  (not (fp.leq a!1 ((_ to_fp 11 53) #x0000000000000000)))))
(assert (not (fp.leq ((_ to_fp 11 53) epsabs_ack!2361)
             ((_ to_fp 11 53) #x0000000000000000))))
(assert (FPCHECK_FMUL_OVERFLOW
  (fp.mul roundNearestTiesToEven
          ((_ to_fp 11 53) #x3fe0000000000000)
          (fp.sub roundNearestTiesToEven
                  ((_ to_fp 11 53) b_ack!2360)
                  ((_ to_fp 11 53) a_ack!2362)))
  #x3fe2021b401fc120))

(check-sat)
(exit)
